1892
8330
7170
7462
2466
6578
10040
7815
5347
1913
6851
5272
8812
2683
7184
10030
9507
5342
1793
4546
7853
992
2931
7432
4362
6640
5159
2632
519
9185
7142
7920
9803
5460
10028
10069
6221
10132
1838
4818
506
2559
4442
5457
5041
4823
914
863
6031
1743
